\* Built LP *\
Minimize
OBJ: __dummy
Subject To
_C1: var_0_0_0 + var_0_1_0 = 1
_C2: var_1_0_0 + var_1_1_0 = 1
_C3: var_2_0_0 + var_2_1_0 = 1
_C4: 6 var_0_0_0 + 7 var_1_0_0 + 7 var_2_0_0 <= 10
_C5: 6 var_0_1_0 + 7 var_1_1_0 + 7 var_2_1_0 <= 10
_C6: 6 var_0_0_0 + 6 var_0_1_0 <= 10
_C7: 7 var_1_0_0 + 7 var_1_1_0 <= 10
_C8: 7 var_2_0_0 + 7 var_2_1_0 <= 10
Bounds
__dummy = 0
var_0_0_0 <= 1
var_0_1_0 <= 1
var_1_0_0 <= 1
var_1_1_0 <= 1
var_2_0_0 <= 1
var_2_1_0 <= 1
End
